Solving original (integer) problem with strategy gdp.hull...
--- Job model.gms Start 02/16/26 05:17:07 52.2.0 d8e408be LEX-LEG x86 64bit/Linux
--- Applying:
    /package/gams/52.2/gmsprmun.txt
--- GAMS Parameters defined
    Input /local/scratch/a/sgusev/repos/k_means/data/gams_scip_gdp.hull/no_mode/2026-02-16_05-17-07/original/model.gms
    Output /local/scratch/a/sgusev/repos/k_means/data/gams_scip_gdp.hull/no_mode/2026-02-16_05-17-07/original/output.lst
    ScrDir /local/scratch/a/sgusev/repos/k_means/data/gams_scip_gdp.hull/no_mode/2026-02-16_05-17-07/original/225a/
    SysDir /package/gams/52.2/
    CurDir /local/scratch/a/sgusev/repos/k_means/data/gams_scip_gdp.hull/no_mode/2026-02-16_05-17-07/original/
    LogOption 3
    AppendLog 1
Licensee: David Bernal / SECQUOIA Research Group         G251008+0003Ac-GEN
          Purdue University, Davidson School of Chemical EngineeringDCE4838
          225a/gamslice.dat
          5a82958a-fbca-4a23
          node:66820903 mem:995 cores:48 ipport:38169 v:2                  
          Evaluation license: Not for commercial or production use
          The time-limited license stops working on : Jun 30, 2027
System information: 48 physical cores and 995 Gb physical memory detected
GAMS 52.2.0   Copyright (C) 1987-2025 GAMS Development. All rights reserved
--- Starting compilation
--- model.gms(3855) 2 Mb
--- $echo File /local/scratch/a/sgusev/repos/k_means/data/gams_scip_gdp.hull/no_mode/2026-02-16_05-17-07/original/scip.opt
--- model.gms(5646) 2 Mb
--- Starting execution: elapsed 0:00:00.020
--- model.gms(3865) 3 Mb
--- Generating MINLP model GAMS_MODEL
--- model.gms(3869) 6 Mb
---   1,174 rows  550 columns  2,841 non-zeroes
---   2,548 nl-code  312 nl-non-zeroes
---   52 discrete-columns
--- Range statistics (absolute non-zero finite values)
--- RHS       [min, max] : [ 4.225E-05, 1.000E+00] - Zero values observed as well
--- Bound     [min, max] : [ 1.000E+00, 1.040E+02] - Zero values observed as well
--- Matrix    [min, max] : [ 7.069E-02, 1.040E+02]
--- model.gms(3869) 4 Mb
--- Executing SCIP (Solvelink=5): elapsed 0:00:00.027

SCIP             52.2.0 d8e408be Dec 8, 2025           LEG x86 64bit/Linux    
SCIP version 9.2.4 (a94f778ac8)
Copyright (c) 2002-2025 Zuse Institute Berlin (ZIB)

External libraries: 
  CPLEX 22.1.2.0       Linear Programming Solver developed by IBM (www.cplex.com)
  CppAD 20180000.0     Algorithmic Differentiation of C++ algorithms developed by B. Bell (github.com/coin-or/CppAD)
  PaPILO 2.4.4         parallel presolve for integer and linear optimization (github.com/scipopt/papilo) (built with TBB) [GitHash: 7c826d50]
  Nauty 2.8.9          Computing Graph Automorphism Groups by Brendan D. McKay (users.cecs.anu.edu.au/~bdm/nauty)
  sassy 1.1            Symmetry preprocessor by Markus Anders (github.com/markusa4/sassy)
  Ipopt 3.14.19        Interior Point Optimizer developed by A. Waechter et.al. (github.com/coin-or/Ipopt)

reading option file /local/scratch/a/sgusev/repos/k_means/data/gams_scip_gdp.hull/no_mode/2026-02-16_05-17-07/original/scip.opt
non-default parameter settings:
limits/time = 300
limits/gap = 1e-06
limits/absgap = 1e-10
lp/threads = 1
misc/printreason = FALSE
numerics/dualfeastol = 1e-06
parallel/maxnthreads = 1
nlpi/ipopt/linear_solver = "ma27"
nlpi/ipopt/linear_system_scaling = "mc19"

original problem has 549 variables (52 bin, 0 int, 497 cont) and 1173 constraints

all 1 solutions given by solution candidate storage are infeasible

presolving:
(round 1, fast)       13 del vars, 0 del conss, 0 add conss, 0 chg bounds, 0 chg sides, 0 chg coeffs, 0 upgd conss, 0 impls, 13 clqs
(round 2, fast)       13 del vars, 0 del conss, 0 add conss, 0 chg bounds, 13 chg sides, 0 chg coeffs, 0 upgd conss, 0 impls, 13 clqs
(round 3, exhaustive) 13 del vars, 0 del conss, 0 add conss, 0 chg bounds, 13 chg sides, 0 chg coeffs, 897 upgd conss, 0 impls, 13 clqs
   (0.1s) probing cycle finished: starting next cycle
   (0.1s) symmetry computation started: requiring (bin +, int +, cont +), (fixed: bin -, int -, cont -)
   (0.1s) no symmetry present (symcode time: 0.00)
presolving (4 rounds: 4 fast, 2 medium, 2 exhaustive):
 13 deleted vars, 0 deleted constraints, 0 added constraints, 0 tightened bounds, 0 added holes, 13 changed sides, 0 changed coefficients
 2288 implications, 13 cliques
presolved problem has 536 variables (52 bin, 0 int, 0 impl, 484 cont) and 1173 constraints
    884 constraints of type <varbound>
     13 constraints of type <setppc>
    224 constraints of type <linear>
     52 constraints of type <nonlinear>
Presolving Time: 0.08

 time | node  | left  |LP iter|LP it/n|mem/heur|mdpt |vars |cons |rows |cuts |sepa|confs|strbr|  dualbound   | primalbound  |  gap   | compl. 
  0.2s|     1 |     0 |   988 |     - |    21M |   0 |1888 |1173 |2999 |   0 |  0 |   0 |   0 | 0.000000e+00 |      --      |    Inf | unknown
p 0.2s|     1 |     0 |  1054 |     - |  clique|   0 |1888 |1173 |2999 |   0 |  0 |   0 |   0 | 0.000000e+00 | 1.948060e+01 |    Inf | unknown
  0.2s|     1 |     0 |  1216 |     - |    24M |   0 |1888 |1173 |3057 |  58 |  1 |   0 |   0 | 0.000000e+00 | 1.948060e+01 |    Inf | unknown
  0.3s|     1 |     0 |  1216 |     - |    24M |   0 |1888 |1173 |3044 |  58 |  1 |   0 |   0 | 0.000000e+00 | 1.948060e+01 |    Inf | unknown
  0.3s|     1 |     0 |  1362 |     - |    24M |   0 |1888 |1173 |3092 | 106 |  2 |   0 |   0 | 0.000000e+00 | 1.948060e+01 |    Inf | unknown
  0.3s|     1 |     0 |  1480 |     - |    25M |   0 |1888 |1173 |3149 | 163 |  3 |   0 |   0 | 0.000000e+00 | 1.948060e+01 |    Inf | unknown
  0.3s|     1 |     0 |  1655 |     - |    25M |   0 |1888 |1173 |3206 | 220 |  4 |   0 |   0 | 0.000000e+00 | 1.948060e+01 |    Inf | unknown
  0.3s|     1 |     0 |  1828 |     - |    25M |   0 |1888 |1173 |3273 | 287 |  5 |   0 |   0 | 0.000000e+00 | 1.948060e+01 |    Inf | unknown
  0.4s|     1 |     0 |  1975 |     - |    26M |   0 |1888 |1173 |3342 | 356 |  6 |   0 |   0 | 0.000000e+00 | 1.948060e+01 |    Inf | unknown
  0.4s|     1 |     0 |  2128 |     - |    26M |   0 |1888 |1173 |3403 | 417 |  7 |   0 |   0 | 0.000000e+00 | 1.948060e+01 |    Inf | unknown
  0.5s|     1 |     0 |  2239 |     - |    27M |   0 |1888 |1173 |3459 | 473 |  8 |   0 |   0 | 0.000000e+00 | 1.948060e+01 |    Inf | unknown
  0.5s|     1 |     0 |  2361 |     - |    27M |   0 |1888 |1173 |3520 | 534 |  9 |   0 |   0 | 0.000000e+00 | 1.948060e+01 |    Inf | unknown
  0.5s|     1 |     0 |  2462 |     - |    27M |   0 |1888 |1173 |3585 | 599 | 10 |   0 |   0 | 0.000000e+00 | 1.948060e+01 |    Inf | unknown
  0.6s|     1 |     0 |  2526 |     - |    28M |   0 |1888 |1173 |2213 | 650 | 11 |   0 |   0 | 0.000000e+00 | 1.948060e+01 |    Inf | unknown
  0.6s|     1 |     0 |  2605 |     - |    28M |   0 |1888 |1173 |2251 | 688 | 12 |   0 |   0 | 0.000000e+00 | 1.948060e+01 |    Inf | unknown
 time | node  | left  |LP iter|LP it/n|mem/heur|mdpt |vars |cons |rows |cuts |sepa|confs|strbr|  dualbound   | primalbound  |  gap   | compl. 
  2.0s|     1 |     0 | 18283 |     - |    28M |   0 |1888 |1160 |2251 | 688 | 12 |   0 |   0 | 0.000000e+00 | 1.948060e+01 |    Inf | unknown
  2.1s|     1 |     0 | 18355 |     - |    28M |   0 |1888 |1160 |2289 | 726 | 13 |   0 |   0 | 0.000000e+00 | 1.948060e+01 |    Inf | unknown
  2.1s|     1 |     0 | 18415 |     - |    29M |   0 |1888 |1160 |2327 | 764 | 14 |   0 |   0 | 0.000000e+00 | 1.948060e+01 |    Inf | unknown
  2.1s|     1 |     0 | 18482 |     - |    29M |   0 |1888 |1160 |2368 | 805 | 15 |   0 |   0 | 0.000000e+00 | 1.948060e+01 |    Inf | unknown
  2.1s|     1 |     0 | 18558 |     - |    29M |   0 |1888 |1160 |2152 | 842 | 16 |   0 |   0 | 0.000000e+00 | 1.948060e+01 |    Inf | unknown
  2.1s|     1 |     0 | 18605 |     - |    29M |   0 |1888 |1160 |2171 | 861 | 17 |   0 |   0 | 0.000000e+00 | 1.948060e+01 |    Inf | unknown
  2.2s|     1 |     0 | 18679 |     - |    30M |   0 |1888 |1160 |2197 | 887 | 18 |   0 |   0 | 0.000000e+00 | 1.948060e+01 |    Inf | unknown
  2.2s|     1 |     0 | 18746 |     - |    30M |   0 |1888 |1160 |2223 | 913 | 19 |   0 |   0 | 0.000000e+00 | 1.948060e+01 |    Inf | unknown
  2.2s|     1 |     0 | 18891 |     - |    30M |   0 |1888 |1160 |2266 | 956 | 20 |   0 |   0 | 0.000000e+00 | 1.948060e+01 |    Inf | unknown
  2.2s|     1 |     0 | 19000 |     - |    30M |   0 |1888 |1160 |2303 | 993 | 21 |   0 |   0 | 0.000000e+00 | 1.948060e+01 |    Inf | unknown
  2.2s|     1 |     0 | 19091 |     - |    30M |   0 |1888 |1160 |2053 |1036 | 22 |   0 |   0 | 0.000000e+00 | 1.948060e+01 |    Inf | unknown
  2.3s|     1 |     0 | 19175 |     - |    30M |   0 |1888 |1160 |2085 |1068 | 23 |   0 |   0 | 0.000000e+00 | 1.948060e+01 |    Inf | unknown
L 2.8s|     1 |     0 | 19254 |     - |    rens|   0 |1888 |1160 |2085 |1068 | 23 |   0 |   0 | 0.000000e+00 | 1.211912e+01 |    Inf | unknown
  3.0s|     1 |     0 | 19254 |     - |    33M |   0 |1888 |1160 |2085 |1068 | 23 |   0 |   0 | 0.000000e+00 | 1.211912e+01 |    Inf | unknown
  3.0s|     1 |     0 | 19354 |     - |    33M |   0 |1888 |1160 |2130 |1113 | 24 |   0 |   0 | 0.000000e+00 | 1.211912e+01 |    Inf | unknown
 time | node  | left  |LP iter|LP it/n|mem/heur|mdpt |vars |cons |rows |cuts |sepa|confs|strbr|  dualbound   | primalbound  |  gap   | compl. 
  3.0s|     1 |     0 | 19387 |     - |    33M |   0 |1888 |1160 |2141 |1124 | 25 |   0 |   0 | 0.000000e+00 | 1.211912e+01 |    Inf | unknown
  3.1s|     1 |     0 | 19388 |     - |    33M |   0 |1888 |1160 |2141 |1124 | 25 |   0 |   1 | 0.000000e+00 | 1.211912e+01 |    Inf | unknown
  3.1s|     1 |     0 | 19474 |     - |    33M |   0 |1888 |1160 |2012 |1163 | 26 |   0 |   1 | 0.000000e+00 | 1.211912e+01 |    Inf | unknown
  3.1s|     1 |     0 | 19497 |     - |    33M |   0 |1888 |1160 |2026 |1177 | 27 |   0 |   1 | 0.000000e+00 | 1.211912e+01 |    Inf | unknown
  3.1s|     1 |     0 | 19499 |     - |    33M |   0 |1888 |1160 |2026 |1177 | 27 |   0 |   2 | 0.000000e+00 | 1.211912e+01 |    Inf | unknown
  3.1s|     1 |     0 | 19575 |     - |    33M |   0 |1888 |1160 |2063 |1214 | 28 |   0 |   2 | 0.000000e+00 | 1.211912e+01 |    Inf | unknown
  3.1s|     1 |     0 | 19589 |     - |    33M |   0 |1888 |1160 |2073 |1224 | 29 |   0 |   2 | 0.000000e+00 | 1.211912e+01 |    Inf | unknown
  3.1s|     1 |     0 | 19589 |     - |    33M |   0 |1888 |1160 |2073 |1224 | 29 |   0 |   3 | 0.000000e+00 | 1.211912e+01 |    Inf | unknown
  3.1s|     1 |     0 | 19639 |     - |    33M |   0 |1888 |1160 |2116 |1267 | 30 |   0 |   3 | 0.000000e+00 | 1.211912e+01 |    Inf | unknown
  3.2s|     1 |     0 | 19648 |     - |    33M |   0 |1888 |1160 |1928 |1272 | 31 |   0 |   3 | 0.000000e+00 | 1.211912e+01 |    Inf | unknown
  3.2s|     1 |     0 | 19648 |     - |    33M |   0 |1888 |1160 |1928 |1272 | 31 |   0 |   4 | 0.000000e+00 | 1.211912e+01 |    Inf | unknown
  3.2s|     1 |     0 | 19750 |     - |    33M |   0 |1888 |1160 |1969 |1313 | 32 |   0 |   4 | 0.000000e+00 | 1.211912e+01 |    Inf | unknown
  3.2s|     1 |     0 | 19771 |     - |    33M |   0 |1888 |1160 |1980 |1324 | 33 |   0 |   4 | 0.000000e+00 | 1.211912e+01 |    Inf | unknown
  3.2s|     1 |     0 | 19778 |     - |    33M |   0 |1888 |1160 |1980 |1324 | 33 |   0 |   5 | 0.000000e+00 | 1.211912e+01 |    Inf | unknown
  3.2s|     1 |     0 | 19871 |     - |    33M |   0 |1888 |1160 |2013 |1357 | 34 |   0 |   5 | 0.000000e+00 | 1.211912e+01 |    Inf | unknown
 time | node  | left  |LP iter|LP it/n|mem/heur|mdpt |vars |cons |rows |cuts |sepa|confs|strbr|  dualbound   | primalbound  |  gap   | compl. 
  3.2s|     1 |     0 | 19878 |     - |    33M |   0 |1888 |1160 |2019 |1363 | 35 |   0 |   5 | 0.000000e+00 | 1.211912e+01 |    Inf | unknown
  3.2s|     1 |     0 | 19878 |     - |    33M |   0 |1888 |1160 |2019 |1363 | 35 |   0 |   6 | 0.000000e+00 | 1.211912e+01 |    Inf | unknown
  3.2s|     1 |     0 | 19927 |     - |    33M |   0 |1888 |1160 |1943 |1392 | 36 |   0 |   6 | 0.000000e+00 | 1.211912e+01 |    Inf | unknown
  3.2s|     1 |     0 | 19933 |     - |    33M |   0 |1888 |1160 |1947 |1396 | 37 |   0 |   6 | 0.000000e+00 | 1.211912e+01 |    Inf | unknown
  3.2s|     1 |     0 | 19941 |     - |    33M |   0 |1888 |1160 |1947 |1396 | 37 |   0 |   7 | 0.000000e+00 | 1.211912e+01 |    Inf | unknown
  3.2s|     1 |     0 | 19981 |     - |    33M |   0 |1888 |1160 |1986 |1435 | 38 |   0 |   7 | 0.000000e+00 | 1.211912e+01 |    Inf | unknown
  3.3s|     1 |     0 | 19996 |     - |    33M |   0 |1888 |1160 |1992 |1441 | 39 |   0 |   7 | 0.000000e+00 | 1.211912e+01 |    Inf | unknown
  3.3s|     1 |     0 | 19999 |     - |    33M |   0 |1888 |1160 |1992 |1441 | 39 |   0 |   8 | 0.000000e+00 | 1.211912e+01 |    Inf | unknown
  3.3s|     1 |     0 | 20040 |     - |    33M |   0 |1888 |1160 |1912 |1479 | 40 |   0 |   8 | 0.000000e+00 | 1.211912e+01 |    Inf | unknown
  3.3s|     1 |     0 | 20064 |     - |    33M |   0 |1888 |1160 |1921 |1488 | 41 |   0 |   8 | 0.000000e+00 | 1.211912e+01 |    Inf | unknown
  3.3s|     1 |     0 | 20069 |     - |    33M |   0 |1888 |1160 |1921 |1488 | 41 |   0 |   9 | 0.000000e+00 | 1.211912e+01 |    Inf | unknown
  3.3s|     1 |     0 | 20102 |     - |    33M |   0 |1888 |1160 |1959 |1526 | 42 |   0 |   9 | 0.000000e+00 | 1.211912e+01 |    Inf | unknown
  3.3s|     1 |     0 | 20102 |     - |    33M |   0 |1888 |1160 |1959 |1526 | 43 |   0 |  10 | 0.000000e+00 | 1.211912e+01 |    Inf | unknown
  3.3s|     1 |     0 | 20118 |     - |    33M |   0 |1888 |1160 |1985 |1552 | 44 |   0 |  10 | 0.000000e+00 | 1.211912e+01 |    Inf | unknown
  3.3s|     1 |     0 | 20121 |     - |    33M |   0 |1888 |1160 |1987 |1554 | 45 |   0 |  10 | 0.000000e+00 | 1.211912e+01 |    Inf | unknown
 time | node  | left  |LP iter|LP it/n|mem/heur|mdpt |vars |cons |rows |cuts |sepa|confs|strbr|  dualbound   | primalbound  |  gap   | compl. 
  3.3s|     1 |     2 | 20121 |     - |    33M |   0 |1888 |1160 |1987 |1554 | 45 |   0 |  10 | 0.000000e+00 | 1.211912e+01 |    Inf | unknown
d 4.9s|    39 |    40 | 28279 | 635.4 |nlpdivin|  10 |1888 |1160 |2311 |   0 |  9 |   0 |  10 | 0.000000e+00 | 9.193318e+00 |    Inf | unknown
  8.0s|   100 |   101 | 43123 | 393.8 |    44M |  17 |1888 |1160 |2234 |  16k|  3 |   0 |  12 | 0.000000e+00 | 9.193318e+00 |    Inf | unknown
L 9.5s|   139 |   140 | 51405 | 342.6 |    gins|  17 |1888 |1160 |2483 |  22k|  8 |   0 |  12 | 0.000000e+00 | 8.910857e+00 |    Inf | unknown
L 9.6s|   139 |   140 | 51405 | 342.6 |    gins|  17 |1888 |1160 |2483 |  22k|  8 |   0 |  12 | 0.000000e+00 | 7.991236e+00 |    Inf | unknown
 11.9s|   200 |   201 | 65650 | 309.1 |    51M |  17 |1888 |1160 |2163 |  30k|  2 |   0 |  19 | 0.000000e+00 | 7.991236e+00 |    Inf | unknown
 15.7s|   300 |   301 | 87135 | 277.6 |    58M |  17 |1888 |1160 |2074 |  44k|  3 |   0 |  22 | 0.000000e+00 | 7.991236e+00 |    Inf | unknown
 20.3s|   400 |   401 |114783 | 277.3 |    71M |  19 |1888 |1160 |2302 |  59k| 13 |   0 |  25 | 0.000000e+00 | 7.991236e+00 |    Inf | unknown
 24.3s|   500 |   501 |142824 | 277.9 |    79M |  24 |1888 |1160 |2409 |  74k|  9 |   0 |  33 | 0.000000e+00 | 7.991236e+00 |    Inf | unknown
 27.9s|   600 |   601 |165263 | 269.0 |    85M |  24 |1888 |1160 |2188 |  88k|  2 |   0 |  48 | 0.000000e+00 | 7.991236e+00 |    Inf | unknown
 32.0s|   700 |   701 |191342 | 267.8 |    94M |  24 |1888 |1160 |2116 | 105k|  3 |   0 |  48 | 0.000000e+00 | 7.991236e+00 |    Inf | unknown
 35.9s|   800 |   801 |215177 | 264.1 |    99M |  24 |1888 |1160 |2324 | 119k|  3 |   0 |  52 | 0.000000e+00 | 7.991236e+00 |    Inf | unknown
L36.8s|   810 |   811 |217713 | 264.0 |    rins|  25 |1888 |1160 |2502 | 120k|  3 |   0 |  57 | 0.000000e+00 | 7.968858e+00 |    Inf | unknown
 40.3s|   900 |   901 |241726 | 264.3 |   104M |  25 |1888 |1160 |2356 | 134k|  2 |   0 |  58 | 0.000000e+00 | 7.968858e+00 |    Inf | unknown
 44.0s|  1000 |  1001 |265360 | 261.5 |   109M |  25 |1888 |1160 |2291 | 147k|  2 |   0 |  64 | 0.000000e+00 | 7.968858e+00 |    Inf | unknown
 time | node  | left  |LP iter|LP it/n|mem/heur|mdpt |vars |cons |rows |cuts |sepa|confs|strbr|  dualbound   | primalbound  |  gap   | compl. 
 48.3s|  1100 |  1101 |292925 | 262.8 |   115M |  25 |1888 |1160 |2546 | 163k|  9 |   0 |  65 | 0.000000e+00 | 7.968858e+00 |    Inf | unknown
 52.1s|  1200 |  1201 |320234 | 263.6 |   121M |  25 |1888 |1160 |2649 | 178k| 11 |   0 |  86 | 0.000000e+00 | 7.968858e+00 |    Inf | unknown
 55.9s|  1300 |  1301 |348189 | 264.9 |   127M |  30 |1888 |1160 |2545 | 194k|  9 |   0 |  97 | 0.000000e+00 | 7.968858e+00 |    Inf | unknown
 59.9s|  1400 |  1401 |377299 | 266.7 |   134M |  30 |1888 |1160 |2452 | 212k|  4 |   0 | 102 | 0.000000e+00 | 7.968858e+00 |    Inf | unknown
 63.8s|  1500 |  1499 |402310 | 265.6 |   139M |  30 |1888 |1160 |2557 | 227k|  8 |   0 | 118 | 0.000000e+00 | 7.968858e+00 |    Inf | unknown
 67.9s|  1600 |  1599 |425562 | 263.6 |   143M |  30 |1888 |1160 |2467 | 242k| 10 |   0 | 131 | 0.000000e+00 | 7.968858e+00 |    Inf | unknown
 71.9s|  1700 |  1697 |454988 | 265.4 |   148M |  30 |1888 |1160 |2322 | 257k|  2 |   0 | 141 | 0.000000e+00 | 7.968858e+00 |    Inf | unknown
 76.0s|  1800 |  1793 |486567 | 268.2 |   154M |  30 |1888 |1160 |2611 | 275k| 10 |   0 | 157 | 0.000000e+00 | 7.968858e+00 |    Inf | unknown
 79.9s|  1900 |  1893 |511300 | 267.1 |   159M |  30 |1888 |1160 |2507 | 291k| 10 |   0 | 178 | 0.000000e+00 | 7.968858e+00 |    Inf | unknown
 83.8s|  2000 |  1989 |539914 | 268.0 |   166M |  30 |1888 |1160 |2664 | 306k| 11 |   0 | 199 | 0.000000e+00 | 7.968858e+00 |    Inf | unknown
 88.0s|  2100 |  2085 |567520 | 268.4 |   169M |  30 |1888 |1160 |2623 | 321k|  9 |   0 | 219 | 0.000000e+00 | 7.968858e+00 |    Inf | unknown
 92.5s|  2200 |  2183 |592495 | 267.6 |   174M |  30 |1888 |1160 |2597 | 336k|  9 |   0 | 267 | 0.000000e+00 | 7.968858e+00 |    Inf | unknown
 96.5s|  2300 |  2271 |616349 | 266.3 |   179M |  30 |1888 |1160 |2779 | 349k| 14 |   0 | 293 | 0.000000e+00 | 7.968858e+00 |    Inf | unknown
  101s|  2400 |  2369 |641808 | 265.8 |   184M |  30 |1888 |1160 |2345 | 363k| 11 |   0 | 338 | 0.000000e+00 | 7.968858e+00 |    Inf | unknown
  105s|  2500 |  2469 |669645 | 266.3 |   190M |  30 |1888 |1160 |2808 | 381k| 10 |   0 | 356 | 0.000000e+00 | 7.968858e+00 |    Inf | unknown
 time | node  | left  |LP iter|LP it/n|mem/heur|mdpt |vars |cons |rows |cuts |sepa|confs|strbr|  dualbound   | primalbound  |  gap   | compl. 
  109s|  2600 |  2567 |705137 | 269.7 |   197M |  30 |1888 |1160 |2586 | 398k|  2 |   0 | 381 | 0.000000e+00 | 7.968858e+00 |    Inf | unknown
  113s|  2700 |  2661 |732720 | 269.9 |   204M |  30 |1888 |1160 |2536 | 414k|  4 |   0 | 423 | 0.000000e+00 | 7.968858e+00 |    Inf | unknown
  117s|  2800 |  2757 |756242 | 268.7 |   206M |  30 |1888 |1160 |2667 | 427k|  7 |   0 | 435 | 0.000000e+00 | 7.968858e+00 |    Inf | unknown
  121s|  2900 |  2853 |778942 | 267.3 |   210M |  30 |1888 |1160 |2489 | 440k|  2 |   0 | 463 | 0.000000e+00 | 7.968858e+00 |    Inf | unknown
  126s|  3000 |  2941 |806058 | 267.4 |   213M |  30 |1888 |1160 |2588 | 453k| 11 |   0 | 493 | 0.000000e+00 | 7.968858e+00 |    Inf | unknown
  130s|  3100 |  3027 |829672 | 266.4 |   216M |  30 |1888 |1160 |2665 | 465k|  8 |   0 | 507 | 2.859438e-07 | 7.968858e+00 |  Large | unknown
  133s|  3200 |  3119 |852939 | 265.3 |   221M |  30 |1888 |1160 |2756 | 478k| 10 |   0 | 520 | 3.407380e-07 | 7.968858e+00 |  Large | unknown
  137s|  3300 |  3215 |875894 | 264.3 |   226M |  30 |1888 |1160 |2919 | 493k| 10 |   0 | 549 | 3.407380e-07 | 7.968858e+00 |  Large | unknown
  141s|  3400 |  3309 |897325 | 262.8 |   228M |  30 |1888 |1160 |2522 | 507k|  8 |   0 | 565 | 1.274792e-03 | 7.968858e+00 |  Large | unknown
  145s|  3500 |  3401 |919218 | 261.5 |   233M |  30 |1888 |1160 |2810 | 520k| 10 |   0 | 582 | 1.274792e-03 | 7.968858e+00 |  Large | unknown
  148s|  3600 |  3493 |938638 | 259.7 |   238M |  30 |1888 |1160 |2399 | 533k|  3 |   0 | 588 | 1.288401e-02 | 7.968858e+00 |  Large | unknown
  152s|  3700 |  3585 |958776 | 258.1 |   242M |  30 |1888 |1160 |2840 | 545k|  0 |   0 | 609 | 2.130967e-02 | 7.968858e+00 |  Large | unknown
  156s|  3800 |  3681 |979038 | 256.6 |   244M |  30 |1888 |1160 |2337 | 559k|  2 |   0 | 621 | 2.131177e-02 | 7.968858e+00 |  Large | unknown
  160s|  3900 |  3777 |  1004k| 256.5 |   247M |  30 |1888 |1160 |2739 | 575k|  9 |   0 | 643 | 2.131177e-02 | 7.968858e+00 |  Large | unknown
  164s|  4000 |  3875 |  1025k| 255.4 |   257M |  30 |1888 |1160 |2435 | 589k|  9 |   0 | 655 | 2.131186e-02 | 7.968858e+00 |  Large | unknown
 time | node  | left  |LP iter|LP it/n|mem/heur|mdpt |vars |cons |rows |cuts |sepa|confs|strbr|  dualbound   | primalbound  |  gap   | compl. 
  168s|  4100 |  3971 |  1045k| 254.0 |   260M |  30 |1888 |1160 |2498 | 602k| 11 |   0 | 683 | 2.315758e-02 | 7.968858e+00 |  Large | unknown
  172s|  4200 |  4059 |  1066k| 253.0 |   265M |  30 |1888 |1160 |2245 | 616k|  3 |   0 | 695 | 2.316015e-02 | 7.968858e+00 |  Large | unknown
  175s|  4300 |  4159 |  1089k| 252.6 |   269M |  30 |1888 |1160 |2680 | 631k|  9 |   0 | 709 | 2.316015e-02 | 7.968858e+00 |  Large | unknown
  179s|  4400 |  4243 |  1110k| 251.5 |   273M |  30 |1888 |1160 |2375 | 645k|  3 |   0 | 723 | 2.974321e-02 | 7.968858e+00 |  Large | unknown
  183s|  4500 |  4331 |  1130k| 250.4 |   275M |  30 |1888 |1160 |2376 | 660k|  9 |   0 | 733 | 1.687238e-01 | 7.968858e+00 |4623.02%| unknown
  187s|  4600 |  4423 |  1157k| 250.8 |   280M |  30 |1888 |1160 |2714 | 674k|  2 |   0 | 754 | 2.285182e-01 | 7.968858e+00 |3387.19%| unknown
  191s|  4700 |  4521 |  1179k| 250.2 |   285M |  30 |1888 |1160 |2653 | 688k|  8 |   0 | 767 | 2.287781e-01 | 7.968858e+00 |3383.23%| unknown
  195s|  4800 |  4611 |  1204k| 250.1 |   289M |  30 |1888 |1160 |2665 | 701k| 10 |   0 | 808 | 2.287781e-01 | 7.968858e+00 |3383.23%| unknown
  198s|  4900 |  4703 |  1225k| 249.2 |   295M |  30 |1888 |1160 |2747 | 714k|  8 |   0 | 822 | 2.300174e-01 | 7.968858e+00 |3364.46%| unknown
  202s|  5000 |  4781 |  1244k| 248.2 |   297M |  30 |1888 |1160 |2277 | 724k|  3 |   0 | 832 | 2.371838e-01 | 7.968858e+00 |3259.78%| unknown
  205s|  5100 |  4875 |  1263k| 247.0 |   300M |  30 |1888 |1160 |2712 | 736k|  9 |   0 | 848 | 2.371838e-01 | 7.968858e+00 |3259.78%| unknown
  209s|  5200 |  4965 |  1283k| 246.1 |   303M |  30 |1888 |1160 |2356 | 750k|  3 |   0 | 859 | 2.502060e-01 | 7.968858e+00 |3084.92%| unknown
  213s|  5300 |  5057 |  1302k| 245.0 |   308M |  30 |1888 |1160 |2208 | 762k|  2 |   0 | 879 | 3.117127e-01 | 7.968858e+00 |2456.47%| unknown
  216s|  5400 |  5149 |  1323k| 244.3 |   312M |  30 |1888 |1160 |2250 | 776k|  8 |   0 | 883 | 3.156453e-01 | 7.968858e+00 |2424.62%| unknown
  220s|  5500 |  5237 |  1340k| 242.9 |   317M |  33 |1888 |1160 |2579 | 787k|  7 |   0 | 884 | 3.251677e-01 | 7.968858e+00 |2350.69%| unknown
 time | node  | left  |LP iter|LP it/n|mem/heur|mdpt |vars |cons |rows |cuts |sepa|confs|strbr|  dualbound   | primalbound  |  gap   | compl. 
  223s|  5600 |  5311 |  1359k| 242.1 |   319M |  36 |1888 |1160 |2532 | 799k|  3 |   0 | 899 | 3.266545e-01 | 7.968858e+00 |2339.54%| unknown
  227s|  5700 |  5403 |  1378k| 241.2 |   322M |  36 |1888 |1160 |2335 | 811k|  8 |   0 | 904 | 3.281793e-01 | 7.968858e+00 |2328.20%| unknown
  231s|  5800 |  5493 |  1397k| 240.3 |   326M |  36 |1888 |1160 |2440 | 823k|  8 |   0 | 912 | 3.348713e-01 | 7.968858e+00 |2279.68%| unknown
  234s|  5900 |  5587 |  1415k| 239.3 |   331M |  36 |1888 |1160 |2569 | 836k| 11 |   0 | 916 | 3.348713e-01 | 7.968858e+00 |2279.68%| unknown
  238s|  6000 |  5669 |  1434k| 238.5 |   335M |  36 |1888 |1160 |2501 | 848k|  3 |   0 | 919 | 3.373163e-01 | 7.968858e+00 |2262.43%| unknown
  241s|  6100 |  5757 |  1452k| 237.5 |   337M |  36 |1888 |1160 |2568 | 861k|  2 |   0 | 925 | 3.457861e-01 | 7.968858e+00 |2204.56%| unknown
  245s|  6200 |  5843 |  1470k| 236.5 |   340M |  36 |1888 |1160 |2816 | 873k|  8 |   0 | 929 | 3.458946e-01 | 7.968858e+00 |2203.84%| unknown
L 246s|  6239 |  5817 |  1477k| 236.2 |    gins|  36 |1888 |1160 |2752 | 878k|  9 |   0 | 933 | 4.006233e-01 | 7.747965e+00 |1833.98%| unknown
  248s|  6300 |  5874 |  1488k| 235.6 |   345M |  36 |1888 |1160 |2617 | 885k|  7 |   0 | 936 | 4.049676e-01 | 7.747965e+00 |1813.23%| unknown
  252s|  6400 |  5964 |  1503k| 234.3 |   347M |  36 |1888 |1160 |2507 | 898k|  8 |   0 | 937 | 4.258479e-01 | 7.747965e+00 |1719.42%| unknown
  256s|  6500 |  6056 |  1520k| 233.3 |   350M |  36 |1888 |1160 |2694 | 910k|  7 |   0 | 939 | 4.258480e-01 | 7.747965e+00 |1719.42%| unknown
  260s|  6600 |  6146 |  1537k| 232.4 |   353M |  36 |1888 |1160 |2645 | 923k|  7 |   0 | 940 | 4.258480e-01 | 7.747965e+00 |1719.42%| unknown
  263s|  6700 |  6230 |  1556k| 231.7 |   356M |  36 |1888 |1160 |2537 | 935k|  2 |   0 | 945 | 4.288613e-01 | 7.747965e+00 |1706.64%| unknown
  267s|  6800 |  6322 |  1573k| 230.8 |   359M |  36 |1888 |1160 |2439 | 947k|  7 |   0 | 950 | 4.834100e-01 | 7.747965e+00 |1502.77%| unknown
  271s|  6900 |  6412 |  1591k| 230.1 |   364M |  36 |1888 |1160 |2631 | 961k| 10 |   0 | 955 | 4.857692e-01 | 7.747965e+00 |1494.99%| unknown
 time | node  | left  |LP iter|LP it/n|mem/heur|mdpt |vars |cons |rows |cuts |sepa|confs|strbr|  dualbound   | primalbound  |  gap   | compl. 
  274s|  7000 |  6508 |  1607k| 229.1 |   368M |  36 |1888 |1160 |2477 | 972k|  9 |   0 | 958 | 5.043132e-01 | 7.747965e+00 |1436.34%| unknown
  278s|  7100 |  6596 |  1622k| 227.9 |   371M |  36 |1888 |1160 |2597 | 983k|  7 |   0 | 960 | 5.238592e-01 | 7.747965e+00 |1379.02%| unknown
  282s|  7200 |  6684 |  1640k| 227.3 |   375M |  36 |1888 |1160 |2738 | 998k|  9 |   0 | 970 | 5.441627e-01 | 7.747965e+00 |1323.83%| unknown
  285s|  7300 |  6776 |  1658k| 226.7 |   379M |  36 |1888 |1160 |2350 |1008k|  2 |   0 | 977 | 5.441655e-01 | 7.747965e+00 |1323.83%| unknown
  289s|  7400 |  6858 |  1676k| 226.0 |   382M |  36 |1888 |1160 |2690 |1020k|  9 |   0 | 977 | 5.645544e-01 | 7.747965e+00 |1272.40%| unknown
  292s|  7500 |  6946 |  1692k| 225.1 |   385M |  36 |1888 |1160 |2259 |1031k|  2 |   0 | 981 | 5.645544e-01 | 7.747965e+00 |1272.40%| unknown
  296s|  7600 |  7036 |  1709k| 224.4 |   387M |  36 |1888 |1160 |2511 |1045k| 10 |   0 | 981 | 5.670306e-01 | 7.747965e+00 |1266.41%| unknown
  300s|  7700 |  7130 |  1728k| 223.9 |   395M |  36 |1888 |1160 |2415 |1059k|  9 |   0 | 986 | 5.677426e-01 | 7.747965e+00 |1264.70%| unknown

SCIP Status        : solving was interrupted [time limit reached]
Solving Time (sec) : 300.00
Solving Nodes      : 7705
Primal Bound       : +7.74796471771586e+00 (14 solutions)
Dual Bound         : +5.67742605225323e-01
Gap                : 1264.70 %


--- Reading solution for model GAMS_MODEL
***
*** Solver did not provide marginals for model GAMS_MODEL
***
--- Executing after solve: elapsed 0:05:00.355
--- model.gms(3872) 4 Mb
--- model.gms(5646) 6 Mb
--- Putfile results /local/scratch/a/sgusev/repos/k_means/data/gams_scip_gdp.hull/no_mode/2026-02-16_05-17-07/original/results.dat
--- Putfile statresults /local/scratch/a/sgusev/repos/k_means/data/gams_scip_gdp.hull/no_mode/2026-02-16_05-17-07/original/resultsstat.dat
*** Status: Normal completion
--- Job model.gms Stop 02/16/26 05:22:08 elapsed 0:05:00.358
Original problem solved. Time taken: 301.00181317329407 seconds
Original objective value: 7.74796471771586
